51 43 66 20 74 37 54 58 40 63 13 89 25 34 44 3 46 2 5 35 27 17 80 55 78 24 18 70 67 41 29 73 33 8 62 57 85 50 7 64 28 79 65 53 15 56 45 32 69 72 52 16 21 68 48 90 39 86 22 96 95 36 47 83 60 23 49 94 38 26 11 71 91 10 12 42 75 81 59 4 88 61 77 76 98 31 6 92 9 0 82 99 19 30 14 87 93 97 84 1 

